NAME 
ROWS
 N  OBJ
 L  R0      
 E  R1      
 E  R2      
 E  R3      
 E  R4      
 E  R5      
 E  R6      
 E  R7      
 E  R8      
 E  R9      
 E  R10     
 E  R11     
 E  R12     
 E  R13     
 E  R14     
 E  R15     
COLUMNS
    MARKER    'MARKER'                 'INTORG'
    I0(8)     OBJ       -90
    I0(8)     R0        96
    I0(8)     R1        15
    I0(8)     R2        7
    I0(8)     R3        8
    I0(8)     R4        15
    I0(8)     R5        14
    I0(8)     R9        8
    I0(8)     R15       1
    I1(3)     OBJ       -7
    I1(3)     R0        123
    I1(3)     R6        11
    I1(3)     R15       1
    I2(7)     OBJ       -160
    I2(7)     R0        -42
    I2(7)     R4        -1
    I2(7)     R5        12
    I2(7)     R6        13
    I2(7)     R7        10
    I2(7)     R8        -1
    I2(7)     R15       1
    I3(8)     OBJ       61
    I3(8)     R0        66
    I3(8)     R2        3
    I3(8)     R4        7
    I3(8)     R6        3
    I3(8)     R7        5
    I3(8)     R8        8
    I3(8)     R9        8
    I3(8)     R15       1
    I4(8)     OBJ       113
    I4(8)     R0        -78
    I4(8)     R1        19
    I4(8)     R3        3
    I4(8)     R6        17
    I4(8)     R7        13
    I4(8)     R8        10
    I4(8)     R9        12
    I4(8)     R15       1
    I5(4)     OBJ       -183
    I5(4)     R0        18
    I5(4)     R2        5
    I5(4)     R4        9
    I5(4)     R15       1
    I6(7)     OBJ       -3
    I6(7)     R0        11
    I6(7)     R1        9
    I6(7)     R5        13
    I6(7)     R6        16
    I6(7)     R7        15
    I6(7)     R9        14
    I6(7)     R15       1
    I7(8)     OBJ       -32
    I7(8)     R0        -103
    I7(8)     R1        7
    I7(8)     R3        -1
    I7(8)     R4        19
    I7(8)     R5        4
    I7(8)     R6        4
    I7(8)     R9        2
    I7(8)     R15       1
    I8(8)     OBJ       2
    I8(8)     R0        189
    I8(8)     R1        13
    I8(8)     R2        19
    I8(8)     R5        6
    I8(8)     R6        10
    I8(8)     R7        6
    I8(8)     R8        15
    I8(8)     R15       1
    MARKER    'MARKER'                 'INTEND'
    C9(7)     OBJ       -7
    C9(7)     R0        2
    C9(7)     R1        9
    C9(7)     R4        16
    C9(7)     R9        4
    C9(7)     R10       3
    C9(7)     R13       6
    C9(7)     R14       16
    C10(8)    R1        9
    C10(8)    R4        11
    C10(8)    R6        4
    C10(8)    R9        1
    C10(8)    R10       18
    C10(8)    R11       18
    C10(8)    R12       8
    C10(8)    R13       14
    C11(11)   OBJ       9
    C11(11)   R0        -1
    C11(11)   R1        12
    C11(11)   R2        15
    C11(11)   R4        14
    C11(11)   R5        17
    C11(11)   R7        4
    C11(11)   R8        14
    C11(11)   R9        5
    C11(11)   R10       1
    C11(11)   R12       5
    C11(11)   R13       3
    C12(7)    OBJ       -10
    C12(7)    R0        -4
    C12(7)    R3        -1
    C12(7)    R4        14
    C12(7)    R6        11
    C12(7)    R9        12
    C12(7)    R13       1
    C12(7)    R14       3
    C13(4)    OBJ       8
    C13(4)    R0        -1
    C13(4)    R1        10
    C13(4)    R11       8
    C13(4)    R12       8
    C14(6)    R0        8
    C14(6)    R2        16
    C14(6)    R3        2
    C14(6)    R4        7
    C14(6)    R6        13
    C14(6)    R12       4
    C15(1)    R1        1
    C16(1)    R2        1
    C17(1)    R3        1
    C18(1)    R4        1
    C19(1)    R5        1
    C20(1)    R6        1
    C21(1)    R7        1
    C22(1)    R8        1
    C23(1)    R9        1
    C24(1)    R10       1
    C25(1)    R11       1
    C26(1)    R12       1
    C27(1)    R13       1
    C28(1)    R14       1
    C29(1)    R15       1
RHS
    RHS1      R0        5.8571428571428569e+01
    RHS1      R1        76
    RHS1      R2        59
    RHS1      R3        58
    RHS1      R4        70
    RHS1      R5        74
    RHS1      R6        83
    RHS1      R7        51
    RHS1      R8        54
    RHS1      R9        52
    RHS1      R10       86
    RHS1      R11       81
    RHS1      R12       87
    RHS1      R13       82
    RHS1      R14       60
    RHS1      R15       3
BOUNDS
 UP BND1      I0(8)     1
 UP BND1      I1(3)     1
 UP BND1      I2(7)     1
 UP BND1      I3(8)     1
 UP BND1      I4(8)     1
 UP BND1      I5(4)     1
 UP BND1      I6(7)     1
 UP BND1      I7(8)     1
 UP BND1      I8(8)     1
ENDATA
